Set parameter Username
Set parameter LogFile to value "gurobi.log"
Academic license - for non-commercial use only - expires 2024-05-02
Using license file /Users/sissi/gurobi.lic

Gurobi Optimizer version 10.0.1 build v10.0.1rc0 (mac64[arm])
Copyright (c) 2023, Gurobi Optimization, LLC

Read OPB format model from file pbo/p_pbo_0_16920.opb
Reading time = 0.00 seconds
(null): 2001 rows, 1057 columns, 5969 nonzeros

CPU model: Apple M2
Thread count: 8 physical cores, 8 logical processors, using up to 8 threads

Optimize a model with 2001 rows, 1057 columns and 5969 nonzeros
Model fingerprint: 0x8a11845c
Variable types: 0 continuous, 1057 integer (1057 binary)
Coefficient statistics:
  Matrix range     [1e+00, 1e+00]
  Objective range  [1e+00, 4e+00]
  Bounds range     [1e+00, 1e+00]
  RHS range        [1e+00, 1e+00]
Found heuristic solution: objective -359.0000000
Presolve removed 929 rows and 473 columns
Presolve time: 0.01s
Presolved: 1072 rows, 584 columns, 3216 nonzeros
Variable types: 0 continuous, 584 integer (584 binary)

Root relaxation: objective -6.420000e+02, 132 iterations, 0.00 seconds (0.00 work units)

    Nodes    |    Current Node    |     Objective Bounds      |     Work
 Expl Unexpl |  Obj  Depth IntInf | Incumbent    BestBd   Gap | It/Node Time

     0     0 -642.00000    0   48 -359.00000 -642.00000  78.8%     -    0s
     0     0 -428.52149    0  574 -359.00000 -428.52149  19.4%     -    0s
     0     0 -407.92999    0  578 -359.00000 -407.92999  13.6%     -    1s
     0     0 -406.53648    0  581 -359.00000 -406.53648  13.2%     -    1s
     0     0 -405.77879    0  581 -359.00000 -405.77879  13.0%     -    1s
     0     0 -405.64713    0  581 -359.00000 -405.64713  13.0%     -    1s
     0     0 -399.14327    0  580 -359.00000 -399.14327  11.2%     -    2s
     0     0 -398.25287    0  578 -359.00000 -398.25287  10.9%     -    2s
     0     0 -397.94578    0  580 -359.00000 -397.94578  10.8%     -    2s
     0     0 -397.79117    0  581 -359.00000 -397.79117  10.8%     -    2s
H    0     0                    -395.0000000 -397.79117  0.71%     -    2s
     0     0     cutoff    0      -395.00000 -395.00000  0.00%     -    2s

Cutting planes:
  MIR: 120
  RLT: 263

Explored 1 nodes (6751 simplex iterations) in 2.74 seconds (1.27 work units)
Thread count was 8 (of 8 available processors)

Solution count 2: -395 -359 
No other solutions better than -395

Optimal solution found (tolerance 1.00e-04)
Best objective -3.950000000000e+02, best bound -3.950000000000e+02, gap 0.0000%

Wrote result file 'solution/p_0_16920.sol'

